c description: Some CNF formula
c generator: CNFgen (0.9.0)
c copyright: (C) 2012-2020 Massimo Lauria <massimo.lauria@uniroma1.it>
c url: https://massimolauria.net/cnfgen
c
p cnf 9 14
-1 2 0
1 -2 0
-3 4 0
3 -4 0
1 3 -5 6 0
1 3 5 -6 0
1 -3 -5 7 0
1 -3 5 -7 0
-1 3 -5 8 0
-1 3 5 -8 0
-1 -3 -5 9 0
-1 -3 5 -9 0
1 0
5 0